WARNING: for repeatability, setting FPU to use double precision
============================[ Problem Statistics ]=============================
|                                                                             |
|  Number of variables:           100                                         |
|  Number of clauses:             449                                         |
|  Parse time:                   0.00 s                                       |
|  Eliminated clauses:           0.00 Mb                                      |
|  Simplification time:          0.00 s                                       |
|                                                                             |
============================[ Search Statistics ]==============================
| Conflicts |          ORIGINAL         |          LEARNT          | Progress |
|           |    Vars  Clauses Literals |    Limit  Clauses Lit/Cl |          |
===============================================================================
|       100 |      96      441     1346 |      161      100      6 |  0.020 % |
===============================================================================
restarts              : 2
conflicts             : 196            (61947 /sec)
decisions             : 252            (0.00 % random) (79646 /sec)
propagations          : 4469           (1412453 /sec)
conflict literals     : 1110           (26.88 % deleted)
Memory used           : 13.00 MB
CPU time              : 0.003164 s

SATISFIABLE
